Traveling Salesman Problem/TSP_generados/Aleatorio1621103246_6.tsp
NAME: Aleatorio1621103246_6.tsp
COMMENT: Randomly generated scenario
TYPE: TSP
DIMENSION: 6
EDGE_WEIGHT_TYPE: ATT
NODE_COORD_SECTION
1 17.34 0.87
2 12.68 49.72
3 22.53 4.24
4 9.34 16.97
5 12.15 29.24
6 33.22 38.52
