Traveling Salesman Problem/TSP_generados/Aleatorio1621103246_6.opt.tour
NAME: Aleatorio1621103246_6.opt.tour
COMMENT: Optimal solution for Aleatorio1621103246_6 (116.54394430597927)
TYPE: TOUR
DIMENSION: 6
TOUR_SECTION
1 3 6 2 5 4
-1
EOF
